c CNF file corresponding to a (partial) station packing problem.
p cnf 5459 229
1 2 3 4 5 6 7 8 9 10 11 12 13 14 0
-1 -2 0
-1 -3 0
-1 -4 0
-1 -5 0
-1 -6 0
-1 -7 0
-1 -8 0
-1 -9 0
-1 -10 0
-1 -11 0
-1 -12 0
-1 -13 0
-1 -14 0
-2 -3 0
-2 -4 0
-2 -5 0
-2 -6 0
-2 -7 0
-2 -8 0
-2 -9 0
-2 -10 0
-2 -11 0
-2 -12 0
-2 -13 0
-2 -14 0
-3 -4 0
-3 -5 0
-3 -6 0
-3 -7 0
-3 -8 0
-3 -9 0
-3 -10 0
-3 -11 0
-3 -12 0
-3 -13 0
-3 -14 0
-4 -5 0
-4 -6 0
-4 -7 0
-4 -8 0
-4 -9 0
-4 -10 0
-4 -11 0
-4 -12 0
-4 -13 0
-4 -14 0
-5 -6 0
-5 -7 0
-5 -8 0
-5 -9 0
-5 -10 0
-5 -11 0
-5 -12 0
-5 -13 0
-5 -14 0
-6 -7 0
-6 -8 0
-6 -9 0
-6 -10 0
-6 -11 0
-6 -12 0
-6 -13 0
-6 -14 0
-7 -8 0
-7 -9 0
-7 -10 0
-7 -11 0
-7 -12 0
-7 -13 0
-7 -14 0
-8 -9 0
-8 -10 0
-8 -11 0
-8 -12 0
-8 -13 0
-8 -14 0
-9 -10 0
-9 -11 0
-9 -12 0
-9 -13 0
-9 -14 0
-10 -11 0
-10 -12 0
-10 -13 0
-10 -14 0
-11 -12 0
-11 -13 0
-11 -14 0
-12 -13 0
-12 -14 0
-13 -14 0
5443 5444 5445 5446 5447 5448 5449 5450 5451 5452 5453 5454 5455 5456 5457 5458 5459 0
-5443 -5444 0
-5443 -5445 0
-5443 -5446 0
-5443 -5447 0
-5443 -5448 0
-5443 -5449 0
-5443 -5450 0
-5443 -5451 0
-5443 -5452 0
-5443 -5453 0
-5443 -5454 0
-5443 -5455 0
-5443 -5456 0
-5443 -5457 0
-5443 -5458 0
-5443 -5459 0
-5444 -5445 0
-5444 -5446 0
-5444 -5447 0
-5444 -5448 0
-5444 -5449 0
-5444 -5450 0
-5444 -5451 0
-5444 -5452 0
-5444 -5453 0
-5444 -5454 0
-5444 -5455 0
-5444 -5456 0
-5444 -5457 0
-5444 -5458 0
-5444 -5459 0
-5445 -5446 0
-5445 -5447 0
-5445 -5448 0
-5445 -5449 0
-5445 -5450 0
-5445 -5451 0
-5445 -5452 0
-5445 -5453 0
-5445 -5454 0
-5445 -5455 0
-5445 -5456 0
-5445 -5457 0
-5445 -5458 0
-5445 -5459 0
-5446 -5447 0
-5446 -5448 0
-5446 -5449 0
-5446 -5450 0
-5446 -5451 0
-5446 -5452 0
-5446 -5453 0
-5446 -5454 0
-5446 -5455 0
-5446 -5456 0
-5446 -5457 0
-5446 -5458 0
-5446 -5459 0
-5447 -5448 0
-5447 -5449 0
-5447 -5450 0
-5447 -5451 0
-5447 -5452 0
-5447 -5453 0
-5447 -5454 0
-5447 -5455 0
-5447 -5456 0
-5447 -5457 0
-5447 -5458 0
-5447 -5459 0
-5448 -5449 0
-5448 -5450 0
-5448 -5451 0
-5448 -5452 0
-5448 -5453 0
-5448 -5454 0
-5448 -5455 0
-5448 -5456 0
-5448 -5457 0
-5448 -5458 0
-5448 -5459 0
-5449 -5450 0
-5449 -5451 0
-5449 -5452 0
-5449 -5453 0
-5449 -5454 0
-5449 -5455 0
-5449 -5456 0
-5449 -5457 0
-5449 -5458 0
-5449 -5459 0
-5450 -5451 0
-5450 -5452 0
-5450 -5453 0
-5450 -5454 0
-5450 -5455 0
-5450 -5456 0
-5450 -5457 0
-5450 -5458 0
-5450 -5459 0
-5451 -5452 0
-5451 -5453 0
-5451 -5454 0
-5451 -5455 0
-5451 -5456 0
-5451 -5457 0
-5451 -5458 0
-5451 -5459 0
-5452 -5453 0
-5452 -5454 0
-5452 -5455 0
-5452 -5456 0
-5452 -5457 0
-5452 -5458 0
-5452 -5459 0
-5453 -5454 0
-5453 -5455 0
-5453 -5456 0
-5453 -5457 0
-5453 -5458 0
-5453 -5459 0
-5454 -5455 0
-5454 -5456 0
-5454 -5457 0
-5454 -5458 0
-5454 -5459 0
-5455 -5456 0
-5455 -5457 0
-5455 -5458 0
-5455 -5459 0
-5456 -5457 0
-5456 -5458 0
-5456 -5459 0
-5457 -5458 0
-5457 -5459 0
-5458 -5459 0
